50 11392

440
464
388
112
8
435
473
121
471
428
36
356
347
451
198
25
429
292
449
373
381
429
182
245
267
242
428
241
305
90
103
310
413
182
450
299
294
210
450
257
75
352
273
208
414
131
139
20
142
412
